results/real/sos1/feb_48_396.in
Version identifier: 22.1.0.0 | 2022-03-09 | 1a383f8ce
CPXPARAM_Threads                                 1
CPXPARAM_MIP_Strategy_VariableSelect             3
CPXPARAM_TimeLimit                               599.99991246000002
1 of 1 MIP starts provided solutions.
MIP start 'm1' defined initial solution with objective 301.0000.
Tried aggregator 2 times.
MIP Presolve eliminated 440 rows and 2377 columns.
MIP Presolve added 36 rows and 9 columns.
MIP Presolve modified 32 coefficients.
Aggregator did 9 substitutions.
Reduced MIP has 2372 rows, 2772 columns, and 97310 nonzeros.
Reduced MIP has 2772 binaries, 0 generals, 0 SOSs, and 0 indicators.
Presolve time = 0.14 sec. (193.05 ticks)
Probing time = 0.01 sec. (12.98 ticks)
Tried aggregator 1 time.
Detecting symmetries...
MIP Presolve modified 8 coefficients.
Reduced MIP has 2372 rows, 2772 columns, and 97407 nonzeros.
Reduced MIP has 2772 binaries, 0 generals, 0 SOSs, and 0 indicators.
Presolve time = 0.09 sec. (140.86 ticks)
Probing time = 0.01 sec. (12.98 ticks)
Clique table members: 1579.
MIP emphasis: balance optimality and feasibility.
MIP search method: dynamic search.
Parallel mode: none, using 1 thread.
Root relaxation solution time = 0.04 sec. (39.96 ticks)

        Nodes                                         Cuts/
   Node  Left     Objective  IInf  Best Integer    Best Bound    ItCnt     Gap

*     0+    0                          301.0000    78606.0000              --- 
      0     0      396.0000   190      301.0000      396.0000      703   31.56%
*     0+    0                          396.0000      396.0000             0.00%
      0     0        cutoff            396.0000      396.0000      703    0.00%
Elapsed time = 0.47 sec. (551.32 ticks, tree = 0.01 MB, solutions = 2)

Root node processing (before b&c):
  Real time             =    0.48 sec. (551.52 ticks)
Sequential b&c:
  Real time             =    0.00 sec. (0.00 ticks)
                          ------------
Total (root+branch&cut) =    0.48 sec. (551.52 ticks)
Primal:	396
Dual:	396
Status:	Optimal
Time:	0.51
Sequence:
	0
	6
	9
	10
	0
	10
	4
	10
	9
	10
	0
	10
	9
	4
	4
	9
	9
	6
	0
	4
	9
	9
	9
	9
	0
	6
	4
	0
	9
	9
	0
	6
	4
	9
	9
	9
	9
	0
	9
	6
	0
	9
	9
	9
	4
	9
	6
	4
	9
	9
	9
	9
	9
	9
	9
	6
	0
	1
	9
	6
	9
	0
	9
	9
	6
	9
	0
	4
	6
	9
	9
	9
	6
	9
	4
	0
	6
	9
	9
	4
	6
	9
	9
	9
	6
	9
	1
	9
	6
	9
	9
	9
	6
	9
	9
	0
	6
	9
	4
	9
	6
	0
	4
	9
	6
	0
	4
	1
	9
	4
	0
	6
	4
	1
	0
	1
	4
	0
	4
	6
	0
	4
	1
	0
	4
	6
	0
	1
	4
	0
	1
	4
	9
	4
	1
	4
	0
	6
	4
	0
	4
	6
	0
	1
	4
	6
	0
	4
	9
	6
	4
	0
	1
	4
	4
	9
	6
	4
	0
	4
	4
	1
	0
	4
	6
	0
	4
	1
	4
	4
	1
	4
	1
	4
	4
	1
	0
	6
	4
	10
	0
	4
	4
	0
	6
	9
	0
	4
	9
	6
	0
	1
	9
	0
	1
	4
	0
	6
	9
	0
	9
	6
	9
	0
	9
	6
	4
	9
	9
	9
	9
	9
	6
	0
	9
	9
	6
	9
	9
	0
	9
	9
	6
	0
	9
	9
	9
	9
	9
	9
	9
	0
	9
	6
	9
	0
	9
	6
	9
	9
	4
	6
	9
	4
	0
	9
	6
	9
	0
	9
	6
	0
	1
	9
	6
	9
	10
	0
	6
	9
	0
	4
	10
	4
	1
	0
	6
	4
	0
	4
	4
	1
	0
	4
	6
	0
	1
	9
	6
	0
	9
	1
	0
	6
	9
	1
	0
	4
	10
	0
	6
	4
	1
	0
	6
	9
	0
	4
	6
	0
	4
	4
	0
	4
	6
	0
	4
	9
	9
	6
	0
	9
	4
	9
	9
	6
	9
	9
	0
	9
	9
	9
	9
	6
	0
	9
	9
	4
	9
	4
	0
	4
	4
	9
	4
	4
	1
	4
	4
	9
	4
	4
	9
	4
	4
	0
	4
	9
	4
	4
	9
	4
	0
	4
	9
	0
	9
	1
	4
	4
	9
	4
	0
	4
	4
	9
	9
	0
	4
	4
	9
	4
	4
	9
	4
	0
	9
	9
	6
	0
	9
	9
	9
	4
	4
	1
	4
	4
	9
	4
	4
	9
	6
	4
	9
	1
