results/real/sos1/feb_48_396.out
Version identifier: 22.1.1.0 | 2022-11-28 | 9160aff4d
CPXPARAM_Threads                                 1
CPXPARAM_MIP_Strategy_VariableSelect             3
CPXPARAM_TimeLimit                               599.99999367299995
1 of 1 MIP starts provided solutions.
MIP start 'm1' defined initial solution with objective 130.0000.
Tried aggregator 1 time.
MIP Presolve eliminated 412 rows and 2376 columns.
MIP Presolve modified 25 coefficients.
Reduced MIP has 1977 rows, 2772 columns, and 94920 nonzeros.
Reduced MIP has 2772 binaries, 0 generals, 0 SOSs, and 0 indicators.
Presolve time = 0.06 sec. (148.80 ticks)
Probing time = 0.01 sec. (12.97 ticks)
Tried aggregator 1 time.
Detecting symmetries...
MIP Presolve modified 7 coefficients.
Reduced MIP has 1977 rows, 2772 columns, and 95020 nonzeros.
Reduced MIP has 2772 binaries, 0 generals, 0 SOSs, and 0 indicators.
Presolve time = 0.05 sec. (137.98 ticks)
Probing time = 0.01 sec. (12.98 ticks)
Clique table members: 1184.
MIP emphasis: balance optimality and feasibility.
MIP search method: dynamic search.
Parallel mode: none, using 1 thread.
Root relaxation solution time = 0.01 sec. (29.96 ticks)

        Nodes                                         Cuts/
   Node  Left     Objective  IInf  Best Integer    Best Bound    ItCnt     Gap

*     0+    0                          130.0000    78606.0000              --- 
      0     0      396.0000    42      130.0000      396.0000      596  204.62%
*     0+    0                          396.0000      396.0000             0.00%
      0     0        cutoff            396.0000      396.0000      596    0.00%
Elapsed time = 0.18 sec. (422.77 ticks, tree = 0.01 MB, solutions = 2)

Root node processing (before b&c):
  Real time             =    0.18 sec. (422.97 ticks)
Sequential b&c:
  Real time             =    0.00 sec. (0.00 ticks)
                          ------------
Total (root+branch&cut) =    0.18 sec. (422.97 ticks)
Primal:	396
Dual:	396
Status:	Optimal
Time:	0.2
Sequence:
	0
	6
	4
	10
	0
	4
	10
	10
	10
	9
	0
	6
	9
	9
	9
	6
	9
	9
	0
	4
	9
	6
	4
	9
	0
	9
	9
	0
	9
	9
	0
	4
	6
	9
	4
	9
	6
	0
	9
	9
	0
	9
	6
	9
	9
	0
	9
	9
	9
	6
	0
	9
	9
	9
	6
	1
	9
	0
	9
	6
	0
	4
	9
	6
	0
	9
	4
	6
	9
	9
	9
	9
	6
	9
	1
	0
	6
	9
	9
	0
	6
	9
	9
	4
	1
	6
	9
	9
	9
	9
	6
	9
	9
	9
	6
	0
	4
	9
	6
	9
	4
	0
	6
	4
	1
	0
	6
	9
	4
	0
	4
	6
	0
	4
	4
	9
	0
	6
	1
	4
	1
	1
	4
	0
	4
	6
	0
	1
	4
	0
	9
	6
	4
	0
	4
	6
	0
	4
	4
	0
	4
	6
	0
	4
	4
	0
	4
	4
	0
	4
	4
	9
	4
	4
	9
	4
	4
	0
	4
	10
	4
	4
	0
	4
	4
	9
	4
	4
	9
	4
	4
	0
	4
	4
	9
	6
	0
	4
	4
	0
	4
	1
	0
	6
	4
	10
	0
	4
	6
	0
	4
	4
	0
	4
	4
	0
	6
	4
	0
	9
	9
	0
	9
	9
	9
	6
	0
	9
	9
	9
	0
	6
	9
	0
	9
	4
	0
	6
	9
	9
	0
	9
	4
	4
	0
	4
	9
	6
	0
	9
	9
	9
	6
	9
	9
	9
	6
	9
	9
	9
	9
	0
	6
	9
	9
	0
	1
	9
	9
	6
	9
	9
	9
	9
	0
	1
	1
	9
	1
	9
	6
	4
	0
	4
	9
	4
	0
	9
	10
	0
	1
	9
	10
	10
	1
	9
	6
	0
	1
	9
	0
	6
	9
	0
	9
	9
	0
	9
	6
	0
	9
	9
	0
	6
	4
	0
	4
	6
	9
	9
	0
	9
	6
	9
	9
	0
	4
	6
	0
	4
	4
	9
	6
	0
	4
	9
	4
	4
	9
	4
	4
	9
	4
	4
	9
	4
	6
	9
	9
	4
	6
	0
	4
	4
	9
	4
	9
	4
	4
	9
	6
	0
	9
	1
	9
	0
	4
	4
	0
	4
	9
	0
	4
	4
	9
	4
	9
	4
	4
	9
	4
	6
	9
	4
	9
	6
	9
	1
	1
	1
	4
	1
	1
	6
	9
	1
	1
	1
	9
	1
	1
	4
	4
	9
	6
	9
	9
	9
	6
	1
	1
	4
	0
	6
	4
	0
